18
4 2 7
5 1 18
5 2 33
5 3 10
5 4 20
6 1 29
6 2 15
6 4 36
7 0 13
7 2 18
7 3 19
7 5 23
7 6 33
8 3 35
8 4 17
8 6 5
9 0 23
9 2 26
9 5 28
10 0 38
10 1 16
10 3 25
10 4 29
10 5 28
10 6 34
10 8 36
11 0 22
11 7 35
11 10 17
12 0 31
12 1 27
12 3 4
12 4 7
12 8 13
12 9 10
13 0 20
13 2 18
13 4 4
13 5 15
13 7 18
13 8 30
13 9 2
13 12 21
14 2 18
14 3 7
14 4 35
14 5 5
14 6 38
14 8 22
14 9 38
14 13 22
15 2 5
15 4 33
15 7 2
15 9 24
15 11 38
15 12 21
16 6 13
16 9 26
16 10 5
16 11 11
16 12 23
16 13 12
16 14 25
16 15 6
17 4 28
17 5 36
17 7 11
17 8 21
17 9 5
17 10 20
17 11 1
17 12 23
17 13 13
17 15 2
17 16 22
